p cnf 300 530
1 0
2 0
3 0
4 0
5 0
16 0
17 0
18 0
19 0
20 0
-21 -191 -171 0
-21 -192 -171 0
-21 -193 -171 0
-21 -194 -171 0
-21 -195 -171 0
-21 -196 -171 0
-21 -197 -171 0
-21 -198 -171 0
-21 -199 -171 0
-21 -200 -171 0
-32 -201 -172 0
-32 -202 -172 0
-32 -203 -172 0
-32 -204 -172 0
-32 -205 -172 0
-32 -206 -172 0
-32 -207 -172 0
-32 -208 -172 0
-32 -209 -172 0
-32 -210 -172 0
-43 -211 -173 0
-43 -212 -173 0
-43 -213 -173 0
-43 -214 -173 0
-43 -215 -173 0
-43 -216 -173 0
-43 -217 -173 0
-43 -218 -173 0
-43 -219 -173 0
-43 -220 -173 0
-54 -221 -174 0
-54 -222 -174 0
-54 -223 -174 0
-54 -224 -174 0
-54 -225 -174 0
-54 -226 -174 0
-54 -227 -174 0
-54 -228 -174 0
-54 -229 -174 0
-54 -230 -174 0
-65 -231 -175 0
-65 -232 -175 0
-65 -233 -175 0
-65 -234 -175 0
-65 -235 -175 0
-65 -236 -175 0
-65 -237 -175 0
-65 -238 -175 0
-65 -239 -175 0
-65 -240 -175 0
-76 -241 -176 0
-76 -242 -176 0
-76 -243 -176 0
-76 -244 -176 0
-76 -245 -176 0
-76 -246 -176 0
-76 -247 -176 0
-76 -248 -176 0
-76 -249 -176 0
-76 -250 -176 0
-87 -251 -177 0
-87 -252 -177 0
-87 -253 -177 0
-87 -254 -177 0
-87 -255 -177 0
-87 -256 -177 0
-87 -257 -177 0
-87 -258 -177 0
-87 -259 -177 0
-87 -260 -177 0
-98 -261 -178 0
-98 -262 -178 0
-98 -263 -178 0
-98 -264 -178 0
-98 -265 -178 0
-98 -266 -178 0
-98 -267 -178 0
-98 -268 -178 0
-98 -269 -178 0
-98 -270 -178 0
-109 -271 -179 0
-109 -272 -179 0
-109 -273 -179 0
-109 -274 -179 0
-109 -275 -179 0
-109 -276 -179 0
-109 -277 -179 0
-109 -278 -179 0
-109 -279 -179 0
-109 -280 -179 0
-120 -281 -180 0
-120 -282 -180 0
-120 -283 -180 0
-120 -284 -180 0
-120 -285 -180 0
-120 -286 -180 0
-120 -287 -180 0
-120 -288 -180 0
-120 -289 -180 0
-120 -290 -180 0
-131 -291 -181 0
-133 -292 -182 0
-135 -293 -183 0
-137 -294 -184 0
-139 -295 -185 0
-141 -296 -186 0
-143 -297 -187 0
-145 -298 -188 0
-147 -299 -189 0
-149 -300 -190 0
-1 151 0
1 -151 0
-2 152 0
2 -152 0
-3 153 0
3 -153 0
-4 154 0
4 -154 0
-5 155 0
5 -155 0
-6 156 0
6 -156 0
-7 157 0
7 -157 0
-8 158 0
8 -158 0
-9 159 0
9 -159 0
-10 160 0
10 -160 0
-11 161 0
11 -161 0
-12 162 0
12 -162 0
-13 163 0
13 -163 0
-14 164 0
14 -164 0
-15 165 0
15 -165 0
-16 166 0
16 -166 0
-17 167 0
17 -167 0
-18 168 0
18 -168 0
-19 169 0
19 -169 0
-20 170 0
20 -170 0
-21 -191 22 0
-22 21 0
-22 191 0
-21 -192 23 0
-23 21 0
-23 192 0
-21 -193 24 0
-24 21 0
-24 193 0
-21 -194 25 0
-25 21 0
-25 194 0
-21 -195 26 0
-26 21 0
-26 195 0
-21 -196 27 0
-27 21 0
-27 196 0
-21 -197 28 0
-28 21 0
-28 197 0
-21 -198 29 0
-29 21 0
-29 198 0
-21 -199 30 0
-30 21 0
-30 199 0
-21 -200 31 0
-31 21 0
-31 200 0
22 23 24 25 26 27 28 29 30 31 -21 171 0
21 -171 0
-32 -201 33 0
-33 32 0
-33 201 0
-32 -202 34 0
-34 32 0
-34 202 0
-32 -203 35 0
-35 32 0
-35 203 0
-32 -204 36 0
-36 32 0
-36 204 0
-32 -205 37 0
-37 32 0
-37 205 0
-32 -206 38 0
-38 32 0
-38 206 0
-32 -207 39 0
-39 32 0
-39 207 0
-32 -208 40 0
-40 32 0
-40 208 0
-32 -209 41 0
-41 32 0
-41 209 0
-32 -210 42 0
-42 32 0
-42 210 0
33 34 35 36 37 38 39 40 41 42 -32 172 0
32 -172 0
-43 -211 44 0
-44 43 0
-44 211 0
-43 -212 45 0
-45 43 0
-45 212 0
-43 -213 46 0
-46 43 0
-46 213 0
-43 -214 47 0
-47 43 0
-47 214 0
-43 -215 48 0
-48 43 0
-48 215 0
-43 -216 49 0
-49 43 0
-49 216 0
-43 -217 50 0
-50 43 0
-50 217 0
-43 -218 51 0
-51 43 0
-51 218 0
-43 -219 52 0
-52 43 0
-52 219 0
-43 -220 53 0
-53 43 0
-53 220 0
44 45 46 47 48 49 50 51 52 53 -43 173 0
43 -173 0
-54 -221 55 0
-55 54 0
-55 221 0
-54 -222 56 0
-56 54 0
-56 222 0
-54 -223 57 0
-57 54 0
-57 223 0
-54 -224 58 0
-58 54 0
-58 224 0
-54 -225 59 0
-59 54 0
-59 225 0
-54 -226 60 0
-60 54 0
-60 226 0
-54 -227 61 0
-61 54 0
-61 227 0
-54 -228 62 0
-62 54 0
-62 228 0
-54 -229 63 0
-63 54 0
-63 229 0
-54 -230 64 0
-64 54 0
-64 230 0
55 56 57 58 59 60 61 62 63 64 -54 174 0
54 -174 0
-65 -231 66 0
-66 65 0
-66 231 0
-65 -232 67 0
-67 65 0
-67 232 0
-65 -233 68 0
-68 65 0
-68 233 0
-65 -234 69 0
-69 65 0
-69 234 0
-65 -235 70 0
-70 65 0
-70 235 0
-65 -236 71 0
-71 65 0
-71 236 0
-65 -237 72 0
-72 65 0
-72 237 0
-65 -238 73 0
-73 65 0
-73 238 0
-65 -239 74 0
-74 65 0
-74 239 0
-65 -240 75 0
-75 65 0
-75 240 0
66 67 68 69 70 71 72 73 74 75 -65 175 0
65 -175 0
-76 -241 77 0
-77 76 0
-77 241 0
-76 -242 78 0
-78 76 0
-78 242 0
-76 -243 79 0
-79 76 0
-79 243 0
-76 -244 80 0
-80 76 0
-80 244 0
-76 -245 81 0
-81 76 0
-81 245 0
-76 -246 82 0
-82 76 0
-82 246 0
-76 -247 83 0
-83 76 0
-83 247 0
-76 -248 84 0
-84 76 0
-84 248 0
-76 -249 85 0
-85 76 0
-85 249 0
-76 -250 86 0
-86 76 0
-86 250 0
77 78 79 80 81 82 83 84 85 86 -76 176 0
76 -176 0
-87 -251 88 0
-88 87 0
-88 251 0
-87 -252 89 0
-89 87 0
-89 252 0
-87 -253 90 0
-90 87 0
-90 253 0
-87 -254 91 0
-91 87 0
-91 254 0
-87 -255 92 0
-92 87 0
-92 255 0
-87 -256 93 0
-93 87 0
-93 256 0
-87 -257 94 0
-94 87 0
-94 257 0
-87 -258 95 0
-95 87 0
-95 258 0
-87 -259 96 0
-96 87 0
-96 259 0
-87 -260 97 0
-97 87 0
-97 260 0
88 89 90 91 92 93 94 95 96 97 -87 177 0
87 -177 0
-98 -261 99 0
-99 98 0
-99 261 0
-98 -262 100 0
-100 98 0
-100 262 0
-98 -263 101 0
-101 98 0
-101 263 0
-98 -264 102 0
-102 98 0
-102 264 0
-98 -265 103 0
-103 98 0
-103 265 0
-98 -266 104 0
-104 98 0
-104 266 0
-98 -267 105 0
-105 98 0
-105 267 0
-98 -268 106 0
-106 98 0
-106 268 0
-98 -269 107 0
-107 98 0
-107 269 0
-98 -270 108 0
-108 98 0
-108 270 0
99 100 101 102 103 104 105 106 107 108 -98 178 0
98 -178 0
-109 -271 110 0
-110 109 0
-110 271 0
-109 -272 111 0
-111 109 0
-111 272 0
-109 -273 112 0
-112 109 0
-112 273 0
-109 -274 113 0
-113 109 0
-113 274 0
-109 -275 114 0
-114 109 0
-114 275 0
-109 -276 115 0
-115 109 0
-115 276 0
-109 -277 116 0
-116 109 0
-116 277 0
-109 -278 117 0
-117 109 0
-117 278 0
-109 -279 118 0
-118 109 0
-118 279 0
-109 -280 119 0
-119 109 0
-119 280 0
110 111 112 113 114 115 116 117 118 119 -109 179 0
109 -179 0
-120 -281 121 0
-121 120 0
-121 281 0
-120 -282 122 0
-122 120 0
-122 282 0
-120 -283 123 0
-123 120 0
-123 283 0
-120 -284 124 0
-124 120 0
-124 284 0
-120 -285 125 0
-125 120 0
-125 285 0
-120 -286 126 0
-126 120 0
-126 286 0
-120 -287 127 0
-127 120 0
-127 287 0
-120 -288 128 0
-128 120 0
-128 288 0
-120 -289 129 0
-129 120 0
-129 289 0
-120 -290 130 0
-130 120 0
-130 290 0
121 122 123 124 125 126 127 128 129 130 -120 180 0
120 -180 0
-131 -291 132 0
-132 131 0
-132 291 0
132 -131 181 0
131 -181 0
-133 -292 134 0
-134 133 0
-134 292 0
134 -133 182 0
133 -182 0
-135 -293 136 0
-136 135 0
-136 293 0
136 -135 183 0
135 -183 0
-137 -294 138 0
-138 137 0
-138 294 0
138 -137 184 0
137 -184 0
-139 -295 140 0
-140 139 0
-140 295 0
140 -139 185 0
139 -185 0
-141 -296 142 0
-142 141 0
-142 296 0
142 -141 186 0
141 -186 0
-143 -297 144 0
-144 143 0
-144 297 0
144 -143 187 0
143 -187 0
-145 -298 146 0
-146 145 0
-146 298 0
146 -145 188 0
145 -188 0
-147 -299 148 0
-148 147 0
-148 299 0
148 -147 189 0
147 -189 0
-149 -300 150 0
-150 149 0
-150 300 0
150 -149 190 0
149 -190 0
